98 75
57 6
38 27
20 72
68 27
96 91
44 72
7  71
2  40
80 17
27 41
53 78
61 20
21 41
8  91
19 96
74 50
41 49
63 72
34 63
18 35
38 76
46 43
33 41
96 58
25 18
16 91
75 24
50 13
38 40
98 100
100 75
59 94
87 3
70 78
66 45
36 23
70 78
66 45
36 23
70 46
57 90
68 4
96 24
50 90 
73 28
28 20
30 10
71 33
74 68
85 12









